%%
% Autogenerated by /opt/prj/battleships-ai/src/server/solver.py, instance 4 10x10 [5] #11 <i1zr5n1m5p>
% Source: https://www.puzzle-battleships.com/?size=4
%%

size = 10;
hints_num = 4;
hints = [| 1, 10 | 6, 5 | 7, 10 | 9, 4 |];
ships_num = 10;

constr_rows = [1, 4, 3, 5, 1, 1, 2, 1, 2, 0];
constr_cols = [2, 3, 2, 2, 4, 0, 2, 0, 3, 2];

given_ships = [|
<>, <>, <>, <>, 1, |
<>, <>, <>, <>, 1, |
<>, <>, <>, <>, 1, |
<>, <>, <>, <>, 1, |
<>, <>, <>, <>, 2, |
<>, <>, <>, <>, 2, |
<>, <>, <>, <>, 2, |
<>, <>, <>, <>, 3, |
<>, <>, <>, <>, 3, |
<>, <>, <>, <>, 4  |];

